Iteraciones:   470 

Costo         Vehículos     Tiempo [seg]
 1186,423      11            0,672 
 977,884       11            1,203 
 977,884       11            1,625 
 977,884       11            2,047 
 977,884       11            2,454 
 977,884       11            2,875 
 964,363       11            3,297 
 964,363       11            3,672 
 926,957       11            4,032 
 926,957       11            4,376 
 926,957       11            4,719 
 926,957       11            5,079 
 926,957       11            5,407 
 926,957       11            5,735 
 909,371       11            6,063 
 909,371       11            6,407 
 909,371       11            6,751 
 909,371       11            7,141 
 902,797       11            7,516 
 902,797       11            7,891 
 902,797       11            8,235 
 902,797       11            8,579 
 902,797       11            8,954 
 902,797       11            9,298 
 902,797       11            9,641 
 902,797       11            9,97 
 902,797       11            10,298 
 902,797       11            10,688 
 902,797       11            11,063 
 902,797       11            11,438 
 902,797       11            11,782 
 902,797       11            12,188 
 902,797       11            12,595 
 902,797       11            12,923 
 902,797       11            13,267 
 900,856       11            13,61 
 900,856       11            13,954 
 900,856       11            14,314 
 900,856       11            14,657 
 900,856       11            14,985 
 900,856       11            15,329 
 900,856       11            15,673 
 900,856       11            16,032 
 900,856       11            16,376 
 900,856       11            16,72 
 900,856       11            17,142 
 897,719       11            17,501 
 897,719       11            17,845 
 897,719       11            18,204 
 897,719       11            18,517 
 894,466       11            18,861 
 894,466       11            19,189 
 894,466       11            19,533 
 894,466       11            19,861 
 894,466       11            20,204 
 894,466       11            20,548 
 894,466       11            20,876 
 892,284       11            21,204 
 892,284       11            21,533 
 892,284       11            21,876 
 892,284       11            22,205 
 892,284       11            22,533 
 892,284       11            22,892 
 892,284       11            23,205 
 892,284       11            23,533 
 892,284       11            23,845 
 892,284       11            24,173 
 892,284       11            24,502 
 892,284       11            24,83 
 892,284       11            25,158 
 892,284       11            25,502 
 892,284       11            25,83 
 892,284       11            26,174 
 892,284       11            26,502 
 892,284       11            26,845 
 892,284       11            27,174 
 892,284       11            27,517 
 892,284       11            27,845 
 892,284       11            28,174 
 892,284       11            28,502 
 892,284       11            28,83 
 892,284       11            29,158 
 892,284       11            29,486 
 892,284       11            29,83 
 892,284       11            30,189 
 892,284       11            30,502 
 892,284       11            30,846 
 892,284       11            31,189 
 892,284       11            31,518 
 892,284       11            31,846 
 892,284       11            32,174 
 892,284       11            32,502 
 892,284       11            32,83 
 892,284       11            33,158 
 892,284       11            33,486 
 892,284       11            33,815 
 892,284       11            34,143 
 892,284       11            34,471 
 892,284       11            34,815 
 892,284       11            35,143 
 892,284       11            35,471 
 892,284       11            35,815 
 891,752       11            36,143 
 891,752       11            36,471 
 891,752       11            36,799 
 891,752       11            37,127 
 891,752       11            37,471 
 891,752       11            37,799 
 891,752       11            38,127 
 891,752       11            38,471 
 891,752       11            38,799 
 891,752       11            39,174 
 891,752       11            39,518 
 891,752       11            39,862 
 891,752       11            40,205 
 891,752       11            40,549 
 891,752       11            40,893 
 891,752       11            41,221 
 891,752       11            41,549 
 891,752       11            41,909 
 891,752       11            42,237 
 891,752       11            42,596 
 891,752       11            42,924 
 891,752       11            43,253 
 891,752       11            43,581 
 891,752       11            43,924 
 891,752       11            44,253 
 891,752       11            44,581 
 891,752       11            44,909 
 891,752       11            45,253 
 891,752       11            45,596 
 891,752       11            45,925 
 891,752       11            46,268 
 891,752       11            46,643 
 891,752       11            46,971 
 891,752       11            47,315 
 891,752       11            47,628 
 891,752       11            47,956 
 891,752       11            48,284 
 891,752       11            48,628 
 891,752       11            48,972 
 891,752       11            49,315 
 891,752       11            49,643 
 891,752       11            49,987 
 891,752       11            50,331 
 891,752       11            50,722 
 891,752       11            51,05 
 891,752       11            51,394 
 891,752       11            51,737 
 891,752       11            52,065 
 891,752       11            52,394 
 891,752       11            52,722 
 891,752       11            53,081 
 891,752       11            53,409 
 891,752       11            53,753 
 891,752       11            54,097 
 891,752       11            54,441 
 891,752       11            54,784 
 891,752       11            55,128 
 891,752       11            55,472 
 891,752       11            55,8 
 891,752       11            56,128 
 891,752       11            56,488 
 891,752       11            56,816 
 891,752       11            57,191 
 891,752       11            57,519 
 891,752       11            57,847 
 891,752       11            58,175 
 891,752       11            58,503 
 891,752       11            58,847 
 891,752       11            59,175 
 891,752       11            59,519 
 891,752       11            59,847 
 891,752       11            60,191 
 891,752       11            60,503 
 891,752       11            60,832 
 891,752       11            61,16 
 891,752       11            61,503 
 891,752       11            61,832 
 891,752       11            62,16 
 891,752       11            62,503 
 891,752       11            62,847 
 891,752       11            63,191 
 891,752       11            63,535 
 891,752       11            63,863 
 891,752       11            64,207 
 891,752       11            64,55 
 891,752       11            64,894 
 891,752       11            65,238 
 891,752       11            65,566 
 888,373       11            65,879 
 888,373       11            66,238 
 888,373       11            66,566 
 888,373       11            66,91 
 888,373       11            67,238 
 888,373       11            67,566 
 888,373       11            67,926 
 888,373       11            68,269 
 888,373       11            68,613 
 888,373       11            68,941 
 888,373       11            69,269 
 888,373       11            69,598 
 888,373       11            69,91 
 888,373       11            70,238 
 888,373       11            70,582 
 888,373       11            70,91 
 888,373       11            71,238 
 888,373       11            71,582 
 888,373       11            71,91 
 888,373       11            72,238 
 888,373       11            72,567 
 888,373       11            72,879 
 888,373       11            73,207 
 888,373       11            73,535 
 888,373       11            73,863 
 888,373       11            74,207 
 888,373       11            74,551 
 888,373       11            74,895 
 888,373       11            75,239 
 888,373       11            75,614 
 888,373       11            75,942 
 888,373       11            76,285 
 888,373       11            76,614 
 888,373       11            76,942 
 888,373       11            77,27 
 888,373       11            77,598 
 888,373       11            77,942 
 888,373       11            78,286 
 888,373       11            78,614 
 888,373       11            78,926 
 888,373       11            79,27 
 888,373       11            79,629 
 888,373       11            79,973 
 888,373       11            80,301 
 888,373       11            80,645 
 888,373       11            80,989 
 888,373       11            81,333 
 888,373       11            81,661 
 888,373       11            82,004 
 888,373       11            82,348 
 888,373       11            82,676 
 888,373       11            83,02 
 888,373       11            83,348 
 888,373       11            83,692 
 888,373       11            84,02 
 888,373       11            84,348 
 888,373       11            84,676 
 888,373       11            85,02 
 888,373       11            85,348 
 888,373       11            85,677 
 888,373       11            86,02 
 888,373       11            86,348 
 888,373       11            86,677 
 888,373       11            87,005 
 888,373       11            87,333 
 888,373       11            87,661 
 888,373       11            87,989 
 888,373       11            88,317 
 887,201       11            88,645 
 887,201       11            88,974 
 887,201       11            89,302 
 887,201       11            89,63 
 887,201       11            89,974 
 887,201       11            90,317 
 887,201       11            90,646 
 887,201       11            90,974 
 887,201       11            91,302 
 887,201       11            91,646 
 887,201       11            91,974 
 884,745       11            92,271 
 884,745       11            92,583 
 884,745       11            92,911 
 884,745       11            93,255 
 884,745       11            93,583 
 884,745       11            93,927 
 884,745       11            94,255 
 884,745       11            94,568 
 884,745       11            94,896 
 884,745       11            95,24 
 884,745       11            95,583 
 884,745       11            95,896 
 884,745       11            96,24 
 884,745       11            96,568 
 884,745       11            96,927 
 884,745       11            97,24 
 884,745       11            97,583 
 884,745       11            97,912 
 884,745       11            98,24 
 884,745       11            98,568 
 884,745       11            98,912 
 884,745       11            99,24 
 884,745       11            99,568 
 884,745       11            99,912 
 884,745       11            100,255 
 884,745       11            100,599 
 884,745       11            100,943 
 884,745       11            101,255 
 884,745       11            101,584 
 884,745       11            101,912 
 884,745       11            102,24 
 884,745       11            102,552 
 884,745       11            102,881 
 884,745       11            103,224 
 884,745       11            103,552 
 884,745       11            103,896 
 884,745       11            104,224 
 884,745       11            104,553 
 884,745       11            104,865 
 884,745       11            105,193 
 884,745       11            105,521 
 884,745       11            105,865 
 884,745       11            106,193 
 884,745       11            106,506 
 884,745       11            106,818 
 884,745       11            107,146 
 884,745       11            107,49 
 884,745       11            107,803 
 884,745       11            108,146 
 884,745       11            108,459 
 884,745       11            108,787 
 884,745       11            109,115 
 884,745       11            109,428 
 884,745       11            109,772 
 884,745       11            110,1 
 871,996       11            110,412 
 871,996       11            110,756 
 871,996       11            111,084 
 871,996       11            111,428 
 871,996       11            111,756 
 871,996       11            112,069 
 871,996       11            112,397 
 871,996       11            112,756 
 871,996       11            113,069 
 871,996       11            113,397 
 871,996       11            113,725 
 871,996       11            114,053 
 871,996       11            114,381 
 871,996       11            114,709 
 871,996       11            115,022 
 871,996       11            115,35 
 871,996       11            115,678 
 871,996       11            116,006 
 871,996       11            116,334 
 871,996       11            116,647 
 871,996       11            116,975 
 871,191       11            117,303 
 871,191       11            117,631 
 871,191       11            117,959 
 871,191       11            118,288 
 871,191       11            118,616 
 871,191       11            118,944 
 871,191       11            119,288 
 871,191       11            119,6 
 871,191       11            119,944 
 871,191       11            120,288 
 871,191       11            120,616 
 871,191       11            120,944 
 871,191       11            121,272 
 871,191       11            121,585 
 871,191       11            121,913 
 871,191       11            122,257 
 871,191       11            122,569 
 871,191       11            122,897 
 871,191       11            123,225 
 871,191       11            123,569 
 871,191       11            123,897 
 871,191       11            124,21 
 871,191       11            124,538 
 871,191       11            124,866 
 869,795       11            125,179 
 869,795       11            125,507 
 869,795       11            125,835 
 869,795       11            126,163 
 869,795       11            126,476 
 869,795       11            126,804 
 869,795       11            127,132 
 869,795       11            127,46 
 869,795       11            127,788 
 869,795       11            128,101 
 869,795       11            128,444 
 869,795       11            128,773 
 869,795       11            129,101 
 869,795       11            129,444 
 869,795       11            129,773 
 869,795       11            130,085 
 869,795       11            130,429 
 869,795       11            130,757 
 869,795       11            131,101 
 869,795       11            131,413 
 869,795       11            131,741 
 869,795       11            132,054 
 869,795       11            132,382 
 869,795       11            132,71 
 869,795       11            133,038 
 869,795       11            133,366 
 869,795       11            133,71 
 869,795       11            134,023 
 869,795       11            134,367 
 869,795       11            134,695 
 869,795       11            135,023 
 869,795       11            135,367 
 869,795       11            135,71 
 869,795       11            136,054 
 869,795       11            136,382 
 869,795       11            136,726 
 869,795       11            137,054 
 869,795       11            137,382 
 869,795       11            137,71 
 869,795       11            138,039 
 869,795       11            138,398 
 869,795       11            138,726 
 869,795       11            139,054 
 869,795       11            139,382 
 869,795       11            139,726 
 869,795       11            140,054 
 869,795       11            140,382 
 869,795       11            140,742 
 869,795       11            141,086 
 869,795       11            141,429 
 869,795       11            141,742 
 869,795       11            142,086 
 869,795       11            142,414 
 869,795       11            142,726 
 869,795       11            143,054 
 869,795       11            143,367 
 869,795       11            143,695 
 869,795       11            144,008 
 869,795       11            144,336 
 869,795       11            144,664 
 869,795       11            144,992 
 869,795       11            145,32 
 869,795       11            145,648 
 869,795       11            145,977 
 869,795       11            146,32 
 869,795       11            146,664 
 869,795       11            146,977 
 869,795       11            147,305 
 869,795       11            147,633 
 869,795       11            147,977 
 869,795       11            148,289 
 869,795       11            148,602 
 869,795       11            148,945 
 869,795       11            149,258 
 869,795       11            149,57 
 869,795       11            149,914 
 869,795       11            150,242 
 869,795       11            150,555 
 869,795       11            150,899 
 869,795       11            151,258 
 869,795       11            151,586 
 869,795       11            151,914 
 869,795       11            152,258 
 869,795       11            152,586 
 869,795       11            152,914 
 869,795       11            153,243 
 869,795       11            153,571 
 869,795       11            153,899 
 869,795       11            154,227 
 869,795       11            154,555 
 869,795       11            154,883 
 869,795       11            155,196 
 869,795       11            155,524 
 869,795       11            155,836 
 869,795       11            156,165 
 869,795       11            156,524 
 869,795       11            156,868 
 869,795       11            157,18 
 869,795       11            157,493 
 869,795       11            157,821 
 869,795       11            158,212 
